LIMIT = 7000;

ITEMS = {
item1,item2,item3,item4,item5,item6,item7,item8,item9,item10,item11,item12,item13,item14,item15,item16,item17,item18,item19,item20
};

WEIGHT = [
882,963,786,390,549,459,693,303,339,351,402,318,495,948,777,408,666,804,822,861
];

KCAL = [
880,961,786,390,548,459,692,302,337,349,401,317,493,948,777,406,664,804,821,860
];